221 300 186 112 103 131 115 186 154 164 186 142 122 104 134 122 161 160 111 151 180 191 117 171 174 109 138 109 100 187 132 182 179 184 194 182 114 175 133 168 138 185 109 126 189 109 114 150 170 125 100 149 182 117 186 155 193 190 131 193 177 129 174 121 112 133 169 127 108 102 161 112 187 137 139 176 146 119 192 182 145 192 197 193 175 183 148 167 172 145 125 114 174 166 135 186 199 104 179 173 173 106 186 125 143 191 100 155 176 158 137 120 149 133 180 190 182 194 122 154 138 148 134 111 180 170 163 144 140 108 117 179 181 169 103 123 125 171 144 100 128 181 188 178 114 167 133 162 160 156 182 164 103 116 141 183 152 170 193 192 178 109 170 124 144 139 113 169 109 158 136 138 138 190 182 118 156 114 181 182 170 162 145 139 144 186 121 196 155 114 153 200 190 189 123 100 128 137 169 137 195 171 175 199 160 122 117 182 137 164 163 106 192 174 146 136 125 133 131 181 113 185 146 